7155.0
1 1 1 1 1 1 1 1 1 1 
4 4 4 4 4 4 4 4 6 6 0 0 0 0 0 0 1 1 1 7 1 1 1 2 2 2 2 2 2 2 2 3 3 3 3 3 3 3 3 3 4 0 1 8 2 8 7 5 9 7 7 6 5 5 8 8 7 7 9 5 5 5 9 3 0 6 6 8 1 0 4 7 9 7 7 8 6 6 5 8 7 9 9 9 9 9 6 5 7 5 